sat
(
  (define-fun PriceProv1 () Int
    240)
  (define-fun ProcProv3 () Int
    3600)
  (define-fun MemProv4 () Int
    6750)
  (define-fun C1_VM2 () Int
    0)
  (define-fun PriceProv2 () Int
    0)
  (define-fun ProcProv4 () Int
    3600)
  (define-fun MemProv1 () Int
    3150)
  (define-fun C3_VM4 () Int
    1)
  (define-fun VM1Type () Int
    7)
  (define-fun C2_VM2 () Int
    0)
  (define-fun ProcProv2 () Int
    1800)
  (define-fun C5_VM2 () Int
    0)
  (define-fun StorageProv1 () Int
    69000)
  (define-fun VM4Type () Int
    10)
  (define-fun ProcProv1 () Int
    1800)
  (define-fun VM5Type () Int
    0)
  (define-fun C3_VM3 () Int
    0)
  (define-fun MemProv5 () Int
    6750)
  (define-fun C5_VM5 () Int
    0)
  (define-fun C4_VM3 () Int
    0)
  (define-fun PriceProv3 () Int
    480)
  (define-fun VM2Type () Int
    0)
  (define-fun StorageProv3 () Int
    141000)
  (define-fun StorageProv4 () Int
    141000)
  (define-fun C5_VM4 () Int
    0)
  (define-fun C3_VM1 () Int
    0)
  (define-fun StorageProv5 () Int
    141000)
  (define-fun C2_VM5 () Int
    0)
  (define-fun C4_VM2 () Int
    0)
  (define-fun StorageProv2 () Int
    267000)
  (define-fun C1_VM5 () Int
    0)
  (define-fun C2_VM4 () Int
    1)
  (define-fun C5_VM3 () Int
    0)
  (define-fun PriceProv5 () Int
    0)
  (define-fun VM3Type () Int
    10)
  (define-fun C3_VM5 () Int
    0)
  (define-fun MemProv3 () Int
    6750)
  (define-fun C2_VM3 () Int
    0)
  (define-fun PriceProv4 () Int
    480)
  (define-fun MemProv2 () Int
    13950)
  (define-fun C1_VM4 () Int
    0)
  (define-fun ProcProv5 () Int
    3600)
  (define-fun C4_VM4 () Int
    1)
  (define-fun C3_VM2 () Int
    0)
  (define-fun C4_VM5 () Int
    0)
  (define-fun C1_VM3 () Int
    1)
  (define-fun C4_VM1 () Int
    0)
  (define-fun C2_VM1 () Int
    0)
  (define-fun C5_VM1 () Int
    1)
  (define-fun C1_VM1 () Int
    0)
)
(objectives
 ((+ 0 PriceProv1 PriceProv2 PriceProv3 PriceProv4 PriceProv5) 1200)
)
(:added-eqs                   36640
 :arith-eq-adapter            3810
 :arith-bound-propagations-lp 4715
 :arith-conflicts             51
 :arith-diseq                 41442
 :arith-fixed-eqs             160
 :arith-lower                 59424
 :arith-make-feasible         6550
 :arith-max-columns           107
 :arith-max-rows              17
 :arith-upper                 31581
 :binary-propagations         220151
 :conflicts                   1583
 :decisions                   18994
 :del-clause                  8784
 :final-checks                29
 :max-memory                  40.94
 :memory                      40.94
 :minimized-lits              9958
 :mk-bool-var                 8704
 :mk-clause                   9899
 :mk-clause-binary            2442
 :num-allocs                  5972972
 :num-checks                  24
 :pb-conflicts                653
 :pb-predicates               254
 :pb-propagations             736
 :pb-resolves                 650
 :propagations                332323
 :restarts                    12
 :rlimit-count                2011224
 :solve-eqs-elim-vars         2
 :solve-eqs-steps             16
 :time                        0.09
 :total-time                  0.10)
